(set-logic QF_BV)
(declare-fun x0 () (_ BitVec 96))
(declare-fun x1 () (_ BitVec 96))
(declare-fun x2 () (_ BitVec 96))
(declare-fun x3 () (_ BitVec 96))
(declare-fun x4 () (_ BitVec 96))
(assert (= x0 (bvmul x2 x1)))
(assert (= x3 (bvmul x4 x0)))
(assert (= (_ bv0 96) (bvmul x4 x2)))
(assert (= false (= x3 (_ bv0 96))))
(check-sat)
(exit)
